c SAT problem
p wcnf 42 46
1 90 -3120 0
1 -90 -3090 0
1 90 -3165 0
1 105 3150 0
1 -3120 -150 0
1 -3135 196 0
1 -3150 151 0
1 120 3105 0
1 120 3060 0
1 165 3075 0
1 165 166 0
1 -165 3120 0
1 3090 -196 0
1 3105 226 0
1 -3105 120 0
1 180 3000 0
1 3000 225 0
1 -3000 -165 0
1 -3015 -165 0
1 -3015 3000 0
1 3030 210 0
1 3045 270 0
1 -121 -3150 0
1 121 3255 0
1 -151 166 0
1 166 -3270 0
1 166 3240 0
1 -3240 -211 0
1 3255 -196 0
1 3285 -3270 0
1 -181 -3105 0
1 -196 3225 0
1 226 -3136 0
1 -3180 -151 0
1 -3180 -285 0
1 -3210 -181 0
1 -240 -3105 0
1 -240 -3121 0
1 240 -3030 0
1 270 285 0
1 -270 -3166 0
1 -285 270 0
1 285 3166 0
1 -3121 240 0
1 3151 255 0
1 3166 -3165 0
